
Gurobi 7.5.1 (linux64, Python) logging started Thu Dec 20 08:34:17 2018

Academic license - for non-commercial use only
Optimize a model with 154 rows, 74 columns and 359 nonzeros
Coefficient statistics:
  Matrix range     [9e-02, 1e+00]
  Objective range  [1e+00, 1e+00]
  Bounds range     [0e+00, 0e+00]
  RHS range        [2e+00, 1e+06]
Presolve removed 0 rows and 6 columns
Presolve time: 0.00s
Presolved: 154 rows, 68 columns, 320 nonzeros

Iteration    Objective       Primal Inf.    Dual Inf.      Time
       0    5.8192597e+06   5.291790e+05   0.000000e+00      0s
      81    1.3655152e+08   0.000000e+00   0.000000e+00      0s

Solved in 81 iterations and 0.00 seconds
Optimal objective  1.365515211e+08

Gurobi 7.5.1 (linux64, Python) logging started Thu Dec 20 08:34:23 2018

Academic license - for non-commercial use only
Optimize a model with 178 rows, 71 columns and 456 nonzeros
Coefficient statistics:
  Matrix range     [9e-02, 1e+00]
  Objective range  [1e+00, 1e+00]
  Bounds range     [0e+00, 0e+00]
  RHS range        [2e+00, 1e+06]
Presolve removed 0 rows and 6 columns
Presolve time: 0.00s
Presolved: 178 rows, 65 columns, 432 nonzeros

Iteration    Objective       Primal Inf.    Dual Inf.      Time
       0    1.3876416e+07   4.975068e+06   0.000000e+00      0s
      69    1.7599241e+08   0.000000e+00   0.000000e+00      0s

Solved in 69 iterations and 0.00 seconds
Optimal objective  1.759924094e+08

Gurobi 7.5.1 (linux64, Python) logging started Thu Dec 20 09:09:22 2018


Gurobi 7.5.1 (linux64, Python) logging started Thu Dec 20 09:13:08 2018

Academic license - for non-commercial use only
Optimize a model with 314 rows, 125 columns and 1323 nonzeros
Coefficient statistics:
  Matrix range     [1e-03, 1e+00]
  Objective range  [1e+00, 1e+00]
  Bounds range     [0e+00, 0e+00]
  RHS range        [2e+00, 1e+06]
Presolve removed 30 rows and 6 columns
Presolve time: 0.00s
Presolved: 284 rows, 119 columns, 1204 nonzeros

Iteration    Objective       Primal Inf.    Dual Inf.      Time
       0    1.5222327e+07   1.826552e+06   0.000000e+00      0s
     115    1.5528650e+08   0.000000e+00   0.000000e+00      0s

Solved in 115 iterations and 0.00 seconds
Optimal objective  1.552864985e+08

Gurobi 7.5.1 (linux64, Python) logging started Thu Dec 20 10:17:06 2018


Gurobi 7.5.1 (linux64, Python) logging started Thu Dec 20 17:13:14 2018


Gurobi 7.5.1 (linux64, Python) logging started Thu Dec 20 17:13:43 2018

Academic license - for non-commercial use only
Optimize a model with 544 rows, 232 columns and 3172 nonzeros
Coefficient statistics:
  Matrix range     [4e-02, 1e+00]
  Objective range  [1e+00, 1e+00]
  Bounds range     [0e+00, 0e+00]
  RHS range        [2e+00, 1e+06]
Presolve removed 40 rows and 24 columns
Presolve time: 0.00s
Presolved: 504 rows, 208 columns, 2784 nonzeros

Iteration    Objective       Primal Inf.    Dual Inf.      Time
       0    1.8069880e+07   3.363061e+07   0.000000e+00      0s
     249    4.0141191e+08   0.000000e+00   0.000000e+00      0s

Solved in 249 iterations and 0.01 seconds
Optimal objective  4.014119066e+08

Gurobi 7.5.1 (linux64, Python) logging started Thu Dec 20 17:14:01 2018

Academic license - for non-commercial use only
Optimize a model with 832 rows, 280 columns and 3216 nonzeros
Coefficient statistics:
  Matrix range     [4e-02, 1e+00]
  Objective range  [1e+00, 1e+00]
  Bounds range     [0e+00, 0e+00]
  RHS range        [2e+00, 1e+06]
Presolve removed 48 rows and 8 columns
Presolve time: 0.00s
Presolved: 784 rows, 272 columns, 2928 nonzeros

Iteration    Objective       Primal Inf.    Dual Inf.      Time
       0    1.8069880e+07   2.202420e+07   0.000000e+00      0s
     312    6.5778563e+08   0.000000e+00   0.000000e+00      0s

Solved in 312 iterations and 0.01 seconds
Optimal objective  6.577856251e+08

Gurobi 7.5.1 (linux64, Python) logging started Thu Dec 20 17:14:13 2018

Academic license - for non-commercial use only
Optimize a model with 752 rows, 264 columns and 3032 nonzeros
Coefficient statistics:
  Matrix range     [4e-02, 1e+00]
  Objective range  [1e+00, 1e+00]
  Bounds range     [0e+00, 0e+00]
  RHS range        [2e+00, 1e+06]
Presolve removed 56 rows and 8 columns
Presolve time: 0.00s
Presolved: 696 rows, 256 columns, 2832 nonzeros

Iteration    Objective       Primal Inf.    Dual Inf.      Time
       0    1.8226237e+07   1.389420e+07   0.000000e+00      0s
     301    5.2638613e+08   0.000000e+00   0.000000e+00      0s

Solved in 301 iterations and 0.01 seconds
Optimal objective  5.263861287e+08

Gurobi 7.5.1 (linux64, Python) logging started Thu Dec 20 17:14:38 2018


Gurobi 7.5.1 (linux64, Python) logging started Thu Dec 20 17:20:19 2018

Academic license - for non-commercial use only
Optimize a model with 12240 rows, 3976 columns and 318128 nonzeros
Coefficient statistics:
  Matrix range     [2e-03, 1e+00]
  Objective range  [1e+00, 1e+00]
  Bounds range     [0e+00, 0e+00]
  RHS range        [2e+00, 1e+06]

Concurrent LP optimizer: dual simplex and barrier
Showing barrier log only...

Presolve removed 224 rows and 1024 columns
Presolve time: 1.03s
Presolved: 3752 rows, 11216 columns, 297960 nonzeros

Ordering time: 0.21s

Barrier statistics:
 Dense cols : 632
 AA' NZ     : 2.821e+05
 Factor NZ  : 5.689e+05 (roughly 10 MBytes of memory)
 Factor Ops : 1.218e+08 (less than 1 second per iteration)
 Threads    : 1

                  Objective                Residual
Iter       Primal          Dual         Primal    Dual     Compl     Time
   0   2.41312293e+08  1.43382685e+06  1.61e+03 5.69e+05  4.04e+07     2s
   1   2.28562235e+08  1.93623062e+10  1.18e+03 4.10e+05  2.76e+07     2s
   2   1.85639714e+08  2.32368441e+10  8.74e+01 1.09e+05  4.04e+06     2s
   3   1.09732693e+09  1.49161726e+10  4.30e+00 4.03e+04  1.40e+06     2s
   4   2.64577863e+09  7.73579465e+09  7.00e-01 1.05e+04  4.88e+05     2s
   5   4.01660366e+09  6.35094274e+09  6.47e-02 5.05e+03  2.23e+05     2s
   6   4.46387417e+09  5.02813533e+09  5.93e-03 1.10e+03  5.35e+04     2s
   7   4.54146785e+09  4.70613298e+09  1.39e-03 3.06e+02  1.56e+04     2s
   8   4.56199755e+09  4.64493988e+09  4.65e-04 1.56e+02  7.84e+03     2s
   9   4.56745061e+09  4.61657401e+09  2.92e-04 8.33e+01  4.61e+03     2s
  10   4.57925680e+09  4.60194405e+09  2.75e-05 4.60e+01  2.15e+03     2s
  11   4.58275491e+09  4.59044428e+09  2.38e-06 1.48e+01  7.27e+02     2s
  12   4.58410694e+09  4.58630277e+09  1.04e-06 3.61e+00  2.06e+02     2s
  13   4.58451747e+09  4.58541634e+09  8.36e-07 1.49e+00  8.42e+01     2s
  14   4.58466122e+09  4.58492728e+09  1.76e-06 4.35e-01  2.49e+01     2s
  15   4.58468735e+09  4.58476383e+09  1.09e-06 1.08e-01  7.11e+00     2s
  16   4.58470111e+09  4.58471600e+09  7.09e-07 1.83e-02  1.38e+00     2s
  17   4.58470443e+09  4.58470750e+09  3.58e-07 4.07e-03  2.85e-01     2s
  18   4.58470488e+09  4.58470495e+09  4.35e-07 1.96e-05  5.31e-03     2s
  19   4.58470491e+09  4.58470491e+09  2.00e-09 1.74e-08  5.32e-06     2s
  20   4.58470491e+09  4.58470491e+09  2.00e-09 1.74e-08  5.32e-06     2s

Barrier solved model in 20 iterations and 2.47 seconds
Optimal objective 4.58470491e+09

Crossover log...

       0 DPushes remaining with DInf 3.6326473e-07                 3s

     700 PPushes remaining with PInf 0.0000000e+00                 3s
       0 PPushes remaining with PInf 0.0000000e+00                 3s

  Push phase complete: Pinf 0.0000000e+00, Dinf 3.8226126e-07      3s

Iteration    Objective       Primal Inf.    Dual Inf.      Time
     930    4.5847049e+09   0.000000e+00   0.000000e+00      3s
     930    4.5847049e+09   0.000000e+00   0.000000e+00      3s

Solved with barrier
Solved in 930 iterations and 3.12 seconds
Optimal objective  4.584704912e+09
